(set-option :print-success true)
(set-option :produce-assignments true)
(set-option :produce-abducts true)
(set-option :incremental true)
(set-logic QF_UFLIA)
(set-option :sygus-core-connective false)
(declare-fun q () Int)
(declare-fun posa () Int)
(declare-fun r () Int)
(declare-fun mul (Int Int ) Int)
(declare-fun b () Int)
;(assert (= (+ b (- b)) 0))
;(assert (= (+ b (+ (- b) (+ (mul 2 r) 1))) (+ (+ b (- b)) (+ (mul 2 r) 1))))
;(assert (= (+ (+ (mul 2 r) 1) (- b)) (+ (- b) (+ (mul 2 r) 1))))
(assert (= (mul 1 b) b))
;(assert (= (+ (+ (mul (mul 2 q) b) (mul 2 r)) 1) (+ (mul (mul 2 q) b) (+ (mul 2 r) 1))))
;(assert (= (+ (+ (mul (mul 2 q) b) (mul 1 b)) (mul 2 (- (+ r 1) b))) (+ (mul (mul 2 q) b) (+ (mul 1 b) (- (+ (mul 2 r) 1) b)))))
;(assert (= posa (+ (mul q b) r)))
(get-abduct A (= (+ (+ (mul (mul 2 q) b) (mul 2 r)) 1) (+ (mul (+ (mul 2 q) 1) b) (- (+ (mul 2 r) 1) b))))
;No response for minutes
